83 56 96 5 70 65 16 62 7 29 17 36 82 32 12 44 24 94 45 75 93 48 59 79 40 50 64 34 3 43 57 49 21 0 4 69 10 38 53 41 22 6 97 71 58 77 89 63 35 19 88 14 98 27 87 51 74 31 54 23 30 72 84 28 46 68 73 13 8 37 67 81 86 99 20 15 18 91 11 78 80 55 95 1 42 39 47 25 66 85 60 92 2 90 52 76 26 9 61 33 

